0.0 429.0 247.0 13.0 222.0 300.0 311.0 891.0 563.0 663.0 
615.0 0.0 106.0 588.0 532.0 687.0 435.0 631.0 437.0 840.0 
527.0 556.0 0.0 961.0 71.0 336.0 67.0 415.0 879.0 322.0 
331.0 366.0 717.0 0.0 26.0 932.0 19.0 51.0 627.0 731.0 
295.0 659.0 535.0 968.0 0.0 353.0 657.0 140.0 333.0 880.0 
397.0 573.0 487.0 934.0 572.0 0.0 315.0 791.0 772.0 235.0 
290.0 849.0 38.0 105.0 790.0 6.0 0.0 168.0 775.0 865.0 
856.0 551.0 570.0 126.0 111.0 754.0 971.0 0.0 384.0 860.0 
34.0 275.0 963.0 775.0 643.0 41.0 945.0 213.0 0.0 914.0 
216.0 949.0 730.0 786.0 562.0 58.0 100.0 731.0 235.0 0.0 
